StringID Type x y demand ReadyTime DueDate ServiceTime
D0 d 35 35 0 0 1000 0
Dt d 35 35 0 0 1000 0
S0 f 35 35 0 0 1000 0
S1 f 64 37 0 0 1000 0
S7 f 20 61 0 0 1000 0
S9 f 15 42 0 0 1000 0
C50 c3 47 47 13 507 599 10
C96 c3 22 27 11 0 974 10
C79 c2 57 48 23 0 964 10
C25 c1 65 20 6 418 532 10
C49 c1 6 68 30 0 946 10
P0 p 8 32 0 0 1000 5
param Q := 60.63
param CV := 1000
param r := 1
param g := 0.49
param V := 1
